p tw 28 196
0 1
0 2
0 7
0 15
0 17
0 18
0 6
0 13
0 3
0 10
0 12
0 24
0 5
0 22
0 27
1 2
1 13
1 20
1 15
1 22
1 16
1 4
1 25
1 17
1 5
1 7
2 9
2 10
2 11
2 23
2 6
2 12
2 16
2 19
2 7
2 8
3 4
3 5
3 7
3 6
3 17
3 18
3 15
3 22
3 14
3 23
3 24
3 9
3 27
3 10
3 8
3 25
4 5
4 11
4 12
4 7
4 13
4 19
4 15
4 18
4 22
4 14
4 23
4 8
4 25
4 10
4 16
4 17
4 9
5 8
5 13
5 14
5 20
5 11
5 15
5 12
5 16
5 21
5 25
5 6
5 27
5 22
5 24
5 10
6 7
6 8
6 17
6 13
6 12
6 11
6 15
6 26
6 24
6 27
6 20
7 8
7 15
7 22
7 24
7 25
7 17
7 9
7 20
7 26
7 13
7 16
7 18
8 13
8 22
8 11
8 19
8 9
8 20
8 25
8 24
8 27
9 10
9 11
9 12
9 22
9 21
9 23
9 14
9 18
9 24
9 26
9 19
9 20
9 17
9 16
10 11
10 12
10 18
10 19
11 12
11 15
11 21
11 23
11 19
11 16
11 26
11 13
11 25
12 22
12 18
12 27
12 16
12 24
12 17
12 15
12 20
12 19
13 19
13 20
13 24
13 23
13 25
14 15
14 16
14 20
14 18
14 22
14 17
14 21
14 23
14 25
15 16
15 21
15 22
15 18
15 26
16 25
16 23
17 18
17 19
17 25
17 21
17 20
18 19
18 27
18 23
18 25
18 22
19 21
20 27
20 25
21 23
21 25
22 24
22 25
22 26
23 25
23 24
24 26
24 27
26 27
